objective value:                           -5286.0412
x1                                                  1 	(obj:-457.054)
x37                                                 1 	(obj:-206.143)
x52                                                 1 	(obj:-1181.23)
x58                                                 1 	(obj:-318.253)
x71                                                 1 	(obj:-261.112)
x152                                                1 	(obj:-13.7777)
x159                                                1 	(obj:-337.774)
x222                                                1 	(obj:-246.66)
x261                                                1 	(obj:-608.515)
x298                                                1 	(obj:-193.981)
x323                                                1 	(obj:-38.2956)
x324                                                1 	(obj:-72.45)
x353                                                1 	(obj:-114.898)
x374                                                1 	(obj:-265.948)
x378                                                1 	(obj:-216.409)
x380                                                1 	(obj:-59.4274)
x419                                                1 	(obj:-404.198)
x443                                                1 	(obj:-209.313)
x499                                                1 	(obj:-80.6025)
